
<<< setup


<<< generate

CPXPARAM_TimeLimit                               3600
Found incumbent of value 0,000000 after 2,23 sec. (1219,97 ticks)
Presolve has eliminated 6286717 rows and 7674780 columns...
Presolve has improved bounds 400 times...
Aggregator has done 1 substitutions...
Aggregator has done 3 substitutions...
Aggregator has done 4 substitutions...
Aggregator has done 6 substitutions...
Aggregator has done 7 substitutions...
Aggregator has done 9 substitutions...
Aggregator has done 10 substitutions...
Aggregator has done 12 substitutions...
Aggregator has done 13 substitutions...
Aggregator has done 15 substitutions...
Aggregator has done 16 substitutions...
Aggregator has done 18 substitutions...
Aggregator has done 19 substitutions...
Aggregator has done 21 substitutions...
Aggregator has done 22 substitutions...
Aggregator has done 24 substitutions...
Aggregator has done 25 substitutions...
Aggregator has done 27 substitutions...
Aggregator has done 28 substitutions...
Aggregator has done 30 substitutions...
Aggregator has done 31 substitutions...
Aggregator has done 33 substitutions...
Aggregator has done 34 substitutions...
Aggregator has done 36 substitutions...
Aggregator has done 37 substitutions...
Aggregator has done 39 substitutions...
Aggregator has done 40 substitutions...
Aggregator has done 42 substitutions...
Aggregator has done 43 substitutions...
Aggregator has done 45 substitutions...
Aggregator has done 46 substitutions...
Tried aggregator 47 times.
MIP Presolve eliminated 6286817 rows and 7680209 columns.
Aggregator did 46 substitutions.
Reduced MIP has 83054 rows, 6946645 columns, and 20591175 nonzeros.
Reduced MIP has 6946644 binaries, 1 generals, 0 SOSs, and 0 indicators.
Presolve time = 522,78 sec. (364686,67 ticks)
Presolve has eliminated 0 rows and 0 columns...
Tried aggregator 1 time.
Reduced MIP has 83054 rows, 6946645 columns, and 20591175 nonzeros.
Reduced MIP has 6946644 binaries, 1 generals, 0 SOSs, and 0 indicators.
Presolve time = 43,81 sec. (23950,20 ticks)

Root node processing (before b&c):
  Real time             =  625,73 sec. (399158,86 ticks)
Parallel b&c, 8 threads:
  Real time             =    0,00 sec. (0,00 ticks)
  Sync time (average)   =    0,00 sec.
  Wait time (average)   =    0,00 sec.
                          ------------
Total (root+branch&cut) =  625,73 sec. (399158,86 ticks)
*** FATAL[ENGINE_002]: Exception IBM ILOG CPLEX : CPLEX Error  1001: Out of memory.
.
### ENGINE exception: Echec du traitement.

<<< no solution

